SPARKNaCl/why3-z3/sparknacl-scalar.adb_8_49_range_check_1.smt2
;; produced by z3_gnatprove.drv ;;
(set-info :smt-lib-version 2.5)
(set-info :source |VC generated by SPARK 2014|)
(set-info :category industrial)
(set-info :status unknown)
;;; generated by SMT-LIB2 driver
;;; SMT-LIB2 driver: bit-vectors, common part
;;; SMT-LIB2: integer arithmetic
(declare-sort byte 0)

;; "to_rep"
(declare-fun to_rep (byte) (_ BitVec 8))

;; "of_rep"
(declare-fun of_rep ((_ BitVec 8)) byte)

;; "inversion_axiom"
(assert
  (forall ((x byte)) (! (= (of_rep (to_rep x)) x) :pattern ((to_rep x)) )))

;; "range_axiom"
(assert true)

;; "coerce_axiom"
(assert
  (forall ((x (_ BitVec 8)))
    (! (= (to_rep (of_rep x)) x) :pattern ((to_rep (of_rep x))) )))

(declare-sort map1 0)

;; "has_bounds"
(declare-fun has_bounds (map1
  Int
  Int) Bool)

;; "get"
(declare-fun get (map1
  Int) byte)

(declare-const nine map1)

(declare-sort gf16_normal_limb 0)

;; "to_rep"
(declare-fun to_rep1 (gf16_normal_limb) (_ BitVec 16))

;; "of_rep"
(declare-fun of_rep1 ((_ BitVec 16)) gf16_normal_limb)

;; "inversion_axiom"
(assert
  (forall ((x gf16_normal_limb))
    (! (= (of_rep1 (to_rep1 x)) x) :pattern ((to_rep1 x)) )))

;; "range_axiom"
(assert true)

;; "coerce_axiom"
(assert
  (forall ((x (_ BitVec 16)))
    (! (= (to_rep1 (of_rep1 x)) x) :pattern ((to_rep1 (of_rep1 x))) )))

;; "ada___sparknacl__scalar__nine__aggregate_def"
(declare-fun ada___sparknacl__scalar__nine__aggregate_def ((_ BitVec 8)
  (_ BitVec 8)) map1)

;; "def_axiom"
(assert
  (forall ((temp___171 (_ BitVec 8)) (temp___172 (_ BitVec 8)))
    (let ((temp___173 (ada___sparknacl__scalar__nine__aggregate_def
                        temp___171
                        temp___172)))
      (and
        (and
          (= (to_rep (get temp___173 0)) temp___171)
          (=> (and (<= 0 0) (<= 0 31)) (has_bounds temp___173 0 31)))
        (forall ((temp___174 Int))
          (! (=>
               (and (<= 0 temp___174) (<= temp___174 31))
               (=>
                 (not (= temp___174 0))
                 (= (to_rep (get temp___173 temp___174)) temp___172))) :pattern (
          (get
            temp___173
            temp___174)) ))))))

;; "Assert"
(assert (<= (+ 0 0) 31))

(declare-const temp___398 map1)

;; "H"
(assert (= (to_rep (get temp___398 0)) #x09))

;; "H"
(assert (has_bounds temp___398 0 31))

;; "H"
(assert
  (forall ((temp___175 Int))
    (! (=>
         (and (<= 0 temp___175) (<= temp___175 31))
         (=>
           (not (= temp___175 0))
           (= (to_rep (get temp___398 temp___175)) #x00))) :pattern (
    (get
      temp___398
      temp___175)) )))

;; "H"
(assert
  (= temp___398 (ada___sparknacl__scalar__nine__aggregate_def #x09 #x00)))

;; "ada___sparknacl__scalar__nine__aggregate_def'result'unused"
(define-fun ada___sparknacl__scalar__nine__aggregate_defqtresultqtunused 
  () map1
  temp___398)

;; "ada___sparknacl__scalar__nine__assume'unused"
(define-fun ada___sparknacl__scalar__nine__assumeqtunused () map1
  temp___398)

;; "Assume"
(assert (= temp___398 nine))

;; "Assume"
(assert (has_bounds nine 0 31))

;; Goal "def'vc"
;; File "sparknacl-scalar.ads", line 1, characters 0-0
(assert
  (not (<= (+ 0 1) 15)))

(check-sat)
